
Gurobi 11.0.3 (linux64) logging started Tue Apr 14 04:43:52 2026

Set parameter LogFile to value "tree/results/wine/wine_depth-3_run-1/Full MIP/LogFile_FullModel.txt"
Gurobi Optimizer version 11.0.3 build v11.0.3rc0 (linux64 - "CentOS Linux 7 (Core)")

CPU model: Intel(R) Xeon(R) Platinum 8260 CPU @ 2.40GHz, instruction set [SSE2|AVX|AVX2|AVX512]
Thread count: 96 physical cores, 192 logical processors, using up to 32 threads

Optimize a model with 11085 rows, 7777 columns and 149329 nonzeros
Model fingerprint: 0x3f07d0ab
Model has 1064 general constraints
Variable types: 4470 continuous, 3307 integer (3307 binary)
Coefficient statistics:
  Matrix range     [4e-03, 1e+04]
  Objective range  [8e-03, 1e+04]
  Bounds range     [5e-01, 4e+02]
  RHS range        [1e-04, 8e+02]

User MIP start produced solution with objective -4599.01 (0.08s)
Loaded user MIP start with objective -4599.01

Presolve added 1056 rows and 3192 columns
Presolve time: 0.18s
Presolved: 12141 rows, 10969 columns, 155689 nonzeros
Presolved model has 3192 SOS constraint(s)
Variable types: 4470 continuous, 6499 integer (6499 binary)
Root relaxation presolved: 12133 rows, 10961 columns, 155689 nonzeros

Deterministic concurrent LP optimizer: primal and dual simplex
Showing primal log only...

Concurrent spin time: 0.00s

Solved with primal simplex

Root relaxation: objective 1.000000e+00, 3004 iterations, 1.92 seconds (1.31 work units)

    Nodes    |    Current Node    |     Objective Bounds      |     Work
 Expl Unexpl |  Obj  Depth IntInf | Incumbent    BestBd   Gap | It/Node Time

     0     0    1.00000    0  364 -4599.0075    1.00000   100%     -    3s
     0     2    1.00000    0  364 -4599.0075    1.00000   100%     -    5s
    15    32    1.00000    4  459 -4599.0075    1.00000   100%   204   10s
    31    64    1.00000    5  461 -4599.0075    1.00000   100%   134   15s
H   34    64                       0.9849624    1.00000  1.53%   123   15s
    63    96    1.00000    6  466    0.98496    1.00000  1.53%  92.3   29s
    95   128    1.00000    7  485    0.98496    1.00000  1.53%   111   37s
H  110   128                       0.9849625    1.00000  1.53%  98.2   37s
   127   160    1.00000    8  500    0.98496    1.00000  1.53%  94.4   45s
   159   192    1.00000    9  497    0.98496    1.00000  1.53%   118   67s
H  177   192                       1.0000000    1.00000  0.00%   108   67s

Explored 191 nodes (24938 simplex iterations) in 67.31 seconds (58.86 work units)
Thread count was 32 (of 192 available processors)

Solution count 4: 1 0.984963 0.984962 -4599.01 

Optimal solution found (tolerance 1.00e-04)
Best objective 1.000000000000e+00, best bound 1.000000000000e+00, gap 0.0000%

User-callback calls 26857, time in user-callback 0.38 sec
